p cnf 7 23
-2 3 0
4 2 5 -3 0
4 5 1 2 7 0
-2 -6 0
7 3 -1 -4 0
-1 -6 -5 -3 -2 -7 0
-2 4 7 -6 -5 1 0
-4 -3 -2 -7 0
-4 -3 -1 0
7 2 -5 4 -3 0
4 3 -6 1 0
7 6 -5 -1 0
6 -7 -5 -2 0
-6 -4 2 0
-7 -3 1 -6 0
-3 -2 6 -1 0
7 2 4 -5 0
-1 -2 -5 0
-1 -3 4 -5 0
-2 -1 4 5 6 0
-3 4 7 5 0
7 4 -1 0
-7 1 0
